p cnf 27 252
1 4 7 10 13 16 19 22 25 0
2 5 8 11 14 17 20 23 26 0
3 6 9 12 15 18 21 24 27 0
-1 -17 0
-1 -18 0
-2 -18 0
-1 -23 0
-1 -24 0
-2 -24 0
-4 -8 0
-4 -9 0
-5 -9 0
-4 -11 0
-4 -12 0
-5 -12 0
-4 -20 0
-4 -21 0
-5 -21 0
-4 -23 0
-4 -24 0
-5 -24 0
-7 -5 0
-7 -6 0
-8 -6 0
-7 -14 0
-7 -15 0
-8 -15 0
-7 -17 0
-7 -18 0
-8 -18 0
-7 -20 0
-7 -21 0
-8 -21 0
-10 -5 0
-10 -6 0
-11 -6 0
-10 -14 0
-10 -15 0
-11 -15 0
-10 -17 0
-10 -18 0
-11 -18 0
-10 -20 0
-10 -21 0
-11 -21 0
-10 -26 0
-10 -27 0
-11 -27 0
-13 -8 0
-13 -9 0
-14 -9 0
-13 -11 0
-13 -12 0
-14 -12 0
-13 -20 0
-13 -21 0
-14 -21 0
-13 -23 0
-13 -24 0
-14 -24 0
-13 -26 0
-13 -27 0
-14 -27 0
-16 -2 0
-16 -3 0
-17 -3 0
-16 -8 0
-16 -9 0
-17 -9 0
-16 -11 0
-16 -12 0
-17 -12 0
-16 -23 0
-16 -24 0
-17 -24 0
-19 -5 0
-19 -6 0
-20 -6 0
-19 -8 0
-19 -9 0
-20 -9 0
-19 -11 0
-19 -12 0
-20 -12 0
-19 -14 0
-19 -15 0
-20 -15 0
-19 -23 0
-19 -24 0
-20 -24 0
-22 -2 0
-22 -3 0
-23 -3 0
-22 -5 0
-22 -6 0
-23 -6 0
-22 -14 0
-22 -15 0
-23 -15 0
-22 -17 0
-22 -18 0
-23 -18 0
-22 -20 0
-22 -21 0
-23 -21 0
-22 -26 0
-22 -27 0
-23 -27 0
-25 -11 0
-25 -12 0
-26 -12 0
-25 -14 0
-25 -15 0
-26 -15 0
-25 -23 0
-25 -24 0
-26 -24 0
-1 -2 0
-4 -5 0
-7 -8 0
-10 -11 0
-13 -14 0
-16 -17 0
-19 -20 0
-22 -23 0
-25 -26 0
-1 -3 0
-4 -6 0
-7 -9 0
-10 -12 0
-13 -15 0
-16 -18 0
-19 -21 0
-22 -24 0
-25 -27 0
-2 -3 0
-5 -6 0
-8 -9 0
-11 -12 0
-14 -15 0
-17 -18 0
-20 -21 0
-23 -24 0
-26 -27 0
-1 -4 0
-1 -7 0
-1 -10 0
-1 -13 0
-1 -16 0
-1 -19 0
-1 -22 0
-1 -25 0
-4 -7 0
-4 -10 0
-4 -13 0
-4 -16 0
-4 -19 0
-4 -22 0
-4 -25 0
-7 -10 0
-7 -13 0
-7 -16 0
-7 -19 0
-7 -22 0
-7 -25 0
-10 -13 0
-10 -16 0
-10 -19 0
-10 -22 0
-10 -25 0
-13 -16 0
-13 -19 0
-13 -22 0
-13 -25 0
-16 -19 0
-16 -22 0
-16 -25 0
-19 -22 0
-19 -25 0
-22 -25 0
-2 -5 0
-2 -8 0
-2 -11 0
-2 -14 0
-2 -17 0
-2 -20 0
-2 -23 0
-2 -26 0
-5 -8 0
-5 -11 0
-5 -14 0
-5 -17 0
-5 -20 0
-5 -23 0
-5 -26 0
-8 -11 0
-8 -14 0
-8 -17 0
-8 -20 0
-8 -23 0
-8 -26 0
-11 -14 0
-11 -17 0
-11 -20 0
-11 -23 0
-11 -26 0
-14 -17 0
-14 -20 0
-14 -23 0
-14 -26 0
-17 -20 0
-17 -23 0
-17 -26 0
-20 -23 0
-20 -26 0
-23 -26 0
-3 -6 0
-3 -9 0
-3 -12 0
-3 -15 0
-3 -18 0
-3 -21 0
-3 -24 0
-3 -27 0
-6 -9 0
-6 -12 0
-6 -15 0
-6 -18 0
-6 -21 0
-6 -24 0
-6 -27 0
-9 -12 0
-9 -15 0
-9 -18 0
-9 -21 0
-9 -24 0
-9 -27 0
-12 -15 0
-12 -18 0
-12 -21 0
-12 -24 0
-12 -27 0
-15 -18 0
-15 -21 0
-15 -24 0
-15 -27 0
-18 -21 0
-18 -24 0
-18 -27 0
-21 -24 0
-21 -27 0
-24 -27 0
